c *********************************
c * Circuit generated by BenCGen
c *
c * Parity_443
c *
c * Ports with 1 gate(s): 1
c * Ports with 2 gate(s): 443
c * Total gates: 444
c *********************************
p cnf 887 1773
1 446 0
-1 -446 0
1 -445 0
446 -445 0
-1 -446 445 0
1 2 -447 0
-1 2 447 0
1 -2 447 0
-1 -2 -447 0
3 4 -448 0
-3 4 448 0
3 -4 448 0
-3 -4 -448 0
5 6 -449 0
-5 6 449 0
5 -6 449 0
-5 -6 -449 0
7 8 -450 0
-7 8 450 0
7 -8 450 0
-7 -8 -450 0
9 10 -451 0
-9 10 451 0
9 -10 451 0
-9 -10 -451 0
11 12 -452 0
-11 12 452 0
11 -12 452 0
-11 -12 -452 0
13 14 -453 0
-13 14 453 0
13 -14 453 0
-13 -14 -453 0
15 16 -454 0
-15 16 454 0
15 -16 454 0
-15 -16 -454 0
17 18 -455 0
-17 18 455 0
17 -18 455 0
-17 -18 -455 0
19 20 -456 0
-19 20 456 0
19 -20 456 0
-19 -20 -456 0
21 22 -457 0
-21 22 457 0
21 -22 457 0
-21 -22 -457 0
23 24 -458 0
-23 24 458 0
23 -24 458 0
-23 -24 -458 0
25 26 -459 0
-25 26 459 0
25 -26 459 0
-25 -26 -459 0
27 28 -460 0
-27 28 460 0
27 -28 460 0
-27 -28 -460 0
29 30 -461 0
-29 30 461 0
29 -30 461 0
-29 -30 -461 0
31 32 -462 0
-31 32 462 0
31 -32 462 0
-31 -32 -462 0
33 34 -463 0
-33 34 463 0
33 -34 463 0
-33 -34 -463 0
35 36 -464 0
-35 36 464 0
35 -36 464 0
-35 -36 -464 0
37 38 -465 0
-37 38 465 0
37 -38 465 0
-37 -38 -465 0
39 40 -466 0
-39 40 466 0
39 -40 466 0
-39 -40 -466 0
41 42 -467 0
-41 42 467 0
41 -42 467 0
-41 -42 -467 0
43 44 -468 0
-43 44 468 0
43 -44 468 0
-43 -44 -468 0
45 46 -469 0
-45 46 469 0
45 -46 469 0
-45 -46 -469 0
47 48 -470 0
-47 48 470 0
47 -48 470 0
-47 -48 -470 0
49 50 -471 0
-49 50 471 0
49 -50 471 0
-49 -50 -471 0
51 52 -472 0
-51 52 472 0
51 -52 472 0
-51 -52 -472 0
53 54 -473 0
-53 54 473 0
53 -54 473 0
-53 -54 -473 0
55 56 -474 0
-55 56 474 0
55 -56 474 0
-55 -56 -474 0
57 58 -475 0
-57 58 475 0
57 -58 475 0
-57 -58 -475 0
59 60 -476 0
-59 60 476 0
59 -60 476 0
-59 -60 -476 0
61 62 -477 0
-61 62 477 0
61 -62 477 0
-61 -62 -477 0
63 64 -478 0
-63 64 478 0
63 -64 478 0
-63 -64 -478 0
65 66 -479 0
-65 66 479 0
65 -66 479 0
-65 -66 -479 0
67 68 -480 0
-67 68 480 0
67 -68 480 0
-67 -68 -480 0
69 70 -481 0
-69 70 481 0
69 -70 481 0
-69 -70 -481 0
71 72 -482 0
-71 72 482 0
71 -72 482 0
-71 -72 -482 0
73 74 -483 0
-73 74 483 0
73 -74 483 0
-73 -74 -483 0
75 76 -484 0
-75 76 484 0
75 -76 484 0
-75 -76 -484 0
77 78 -485 0
-77 78 485 0
77 -78 485 0
-77 -78 -485 0
79 80 -486 0
-79 80 486 0
79 -80 486 0
-79 -80 -486 0
81 82 -487 0
-81 82 487 0
81 -82 487 0
-81 -82 -487 0
83 84 -488 0
-83 84 488 0
83 -84 488 0
-83 -84 -488 0
85 86 -489 0
-85 86 489 0
85 -86 489 0
-85 -86 -489 0
87 88 -490 0
-87 88 490 0
87 -88 490 0
-87 -88 -490 0
89 90 -491 0
-89 90 491 0
89 -90 491 0
-89 -90 -491 0
91 92 -492 0
-91 92 492 0
91 -92 492 0
-91 -92 -492 0
93 94 -493 0
-93 94 493 0
93 -94 493 0
-93 -94 -493 0
95 96 -494 0
-95 96 494 0
95 -96 494 0
-95 -96 -494 0
97 98 -495 0
-97 98 495 0
97 -98 495 0
-97 -98 -495 0
99 100 -496 0
-99 100 496 0
99 -100 496 0
-99 -100 -496 0
101 102 -497 0
-101 102 497 0
101 -102 497 0
-101 -102 -497 0
103 104 -498 0
-103 104 498 0
103 -104 498 0
-103 -104 -498 0
105 106 -499 0
-105 106 499 0
105 -106 499 0
-105 -106 -499 0
107 108 -500 0
-107 108 500 0
107 -108 500 0
-107 -108 -500 0
109 110 -501 0
-109 110 501 0
109 -110 501 0
-109 -110 -501 0
111 112 -502 0
-111 112 502 0
111 -112 502 0
-111 -112 -502 0
113 114 -503 0
-113 114 503 0
113 -114 503 0
-113 -114 -503 0
115 116 -504 0
-115 116 504 0
115 -116 504 0
-115 -116 -504 0
117 118 -505 0
-117 118 505 0
117 -118 505 0
-117 -118 -505 0
119 120 -506 0
-119 120 506 0
119 -120 506 0
-119 -120 -506 0
121 122 -507 0
-121 122 507 0
121 -122 507 0
-121 -122 -507 0
123 124 -508 0
-123 124 508 0
123 -124 508 0
-123 -124 -508 0
125 126 -509 0
-125 126 509 0
125 -126 509 0
-125 -126 -509 0
127 128 -510 0
-127 128 510 0
127 -128 510 0
-127 -128 -510 0
129 130 -511 0
-129 130 511 0
129 -130 511 0
-129 -130 -511 0
131 132 -512 0
-131 132 512 0
131 -132 512 0
-131 -132 -512 0
133 134 -513 0
-133 134 513 0
133 -134 513 0
-133 -134 -513 0
135 136 -514 0
-135 136 514 0
135 -136 514 0
-135 -136 -514 0
137 138 -515 0
-137 138 515 0
137 -138 515 0
-137 -138 -515 0
139 140 -516 0
-139 140 516 0
139 -140 516 0
-139 -140 -516 0
141 142 -517 0
-141 142 517 0
141 -142 517 0
-141 -142 -517 0
143 144 -518 0
-143 144 518 0
143 -144 518 0
-143 -144 -518 0
145 146 -519 0
-145 146 519 0
145 -146 519 0
-145 -146 -519 0
147 148 -520 0
-147 148 520 0
147 -148 520 0
-147 -148 -520 0
149 150 -521 0
-149 150 521 0
149 -150 521 0
-149 -150 -521 0
151 152 -522 0
-151 152 522 0
151 -152 522 0
-151 -152 -522 0
153 154 -523 0
-153 154 523 0
153 -154 523 0
-153 -154 -523 0
155 156 -524 0
-155 156 524 0
155 -156 524 0
-155 -156 -524 0
157 158 -525 0
-157 158 525 0
157 -158 525 0
-157 -158 -525 0
159 160 -526 0
-159 160 526 0
159 -160 526 0
-159 -160 -526 0
161 162 -527 0
-161 162 527 0
161 -162 527 0
-161 -162 -527 0
163 164 -528 0
-163 164 528 0
163 -164 528 0
-163 -164 -528 0
165 166 -529 0
-165 166 529 0
165 -166 529 0
-165 -166 -529 0
167 168 -530 0
-167 168 530 0
167 -168 530 0
-167 -168 -530 0
169 170 -531 0
-169 170 531 0
169 -170 531 0
-169 -170 -531 0
171 172 -532 0
-171 172 532 0
171 -172 532 0
-171 -172 -532 0
173 174 -533 0
-173 174 533 0
173 -174 533 0
-173 -174 -533 0
175 176 -534 0
-175 176 534 0
175 -176 534 0
-175 -176 -534 0
177 178 -535 0
-177 178 535 0
177 -178 535 0
-177 -178 -535 0
179 180 -536 0
-179 180 536 0
179 -180 536 0
-179 -180 -536 0
181 182 -537 0
-181 182 537 0
181 -182 537 0
-181 -182 -537 0
183 184 -538 0
-183 184 538 0
183 -184 538 0
-183 -184 -538 0
185 186 -539 0
-185 186 539 0
185 -186 539 0
-185 -186 -539 0
187 188 -540 0
-187 188 540 0
187 -188 540 0
-187 -188 -540 0
189 190 -541 0
-189 190 541 0
189 -190 541 0
-189 -190 -541 0
191 192 -542 0
-191 192 542 0
191 -192 542 0
-191 -192 -542 0
193 194 -543 0
-193 194 543 0
193 -194 543 0
-193 -194 -543 0
195 196 -544 0
-195 196 544 0
195 -196 544 0
-195 -196 -544 0
197 198 -545 0
-197 198 545 0
197 -198 545 0
-197 -198 -545 0
199 200 -546 0
-199 200 546 0
199 -200 546 0
-199 -200 -546 0
201 202 -547 0
-201 202 547 0
201 -202 547 0
-201 -202 -547 0
203 204 -548 0
-203 204 548 0
203 -204 548 0
-203 -204 -548 0
205 206 -549 0
-205 206 549 0
205 -206 549 0
-205 -206 -549 0
207 208 -550 0
-207 208 550 0
207 -208 550 0
-207 -208 -550 0
209 210 -551 0
-209 210 551 0
209 -210 551 0
-209 -210 -551 0
211 212 -552 0
-211 212 552 0
211 -212 552 0
-211 -212 -552 0
213 214 -553 0
-213 214 553 0
213 -214 553 0
-213 -214 -553 0
215 216 -554 0
-215 216 554 0
215 -216 554 0
-215 -216 -554 0
217 218 -555 0
-217 218 555 0
217 -218 555 0
-217 -218 -555 0
219 220 -556 0
-219 220 556 0
219 -220 556 0
-219 -220 -556 0
221 222 -557 0
-221 222 557 0
221 -222 557 0
-221 -222 -557 0
223 224 -558 0
-223 224 558 0
223 -224 558 0
-223 -224 -558 0
225 226 -559 0
-225 226 559 0
225 -226 559 0
-225 -226 -559 0
227 228 -560 0
-227 228 560 0
227 -228 560 0
-227 -228 -560 0
229 230 -561 0
-229 230 561 0
229 -230 561 0
-229 -230 -561 0
231 232 -562 0
-231 232 562 0
231 -232 562 0
-231 -232 -562 0
233 234 -563 0
-233 234 563 0
233 -234 563 0
-233 -234 -563 0
235 236 -564 0
-235 236 564 0
235 -236 564 0
-235 -236 -564 0
237 238 -565 0
-237 238 565 0
237 -238 565 0
-237 -238 -565 0
239 240 -566 0
-239 240 566 0
239 -240 566 0
-239 -240 -566 0
241 242 -567 0
-241 242 567 0
241 -242 567 0
-241 -242 -567 0
243 244 -568 0
-243 244 568 0
243 -244 568 0
-243 -244 -568 0
245 246 -569 0
-245 246 569 0
245 -246 569 0
-245 -246 -569 0
247 248 -570 0
-247 248 570 0
247 -248 570 0
-247 -248 -570 0
249 250 -571 0
-249 250 571 0
249 -250 571 0
-249 -250 -571 0
251 252 -572 0
-251 252 572 0
251 -252 572 0
-251 -252 -572 0
253 254 -573 0
-253 254 573 0
253 -254 573 0
-253 -254 -573 0
255 256 -574 0
-255 256 574 0
255 -256 574 0
-255 -256 -574 0
257 258 -575 0
-257 258 575 0
257 -258 575 0
-257 -258 -575 0
259 260 -576 0
-259 260 576 0
259 -260 576 0
-259 -260 -576 0
261 262 -577 0
-261 262 577 0
261 -262 577 0
-261 -262 -577 0
263 264 -578 0
-263 264 578 0
263 -264 578 0
-263 -264 -578 0
265 266 -579 0
-265 266 579 0
265 -266 579 0
-265 -266 -579 0
267 268 -580 0
-267 268 580 0
267 -268 580 0
-267 -268 -580 0
269 270 -581 0
-269 270 581 0
269 -270 581 0
-269 -270 -581 0
271 272 -582 0
-271 272 582 0
271 -272 582 0
-271 -272 -582 0
273 274 -583 0
-273 274 583 0
273 -274 583 0
-273 -274 -583 0
275 276 -584 0
-275 276 584 0
275 -276 584 0
-275 -276 -584 0
277 278 -585 0
-277 278 585 0
277 -278 585 0
-277 -278 -585 0
279 280 -586 0
-279 280 586 0
279 -280 586 0
-279 -280 -586 0
281 282 -587 0
-281 282 587 0
281 -282 587 0
-281 -282 -587 0
283 284 -588 0
-283 284 588 0
283 -284 588 0
-283 -284 -588 0
285 286 -589 0
-285 286 589 0
285 -286 589 0
-285 -286 -589 0
287 288 -590 0
-287 288 590 0
287 -288 590 0
-287 -288 -590 0
289 290 -591 0
-289 290 591 0
289 -290 591 0
-289 -290 -591 0
291 292 -592 0
-291 292 592 0
291 -292 592 0
-291 -292 -592 0
293 294 -593 0
-293 294 593 0
293 -294 593 0
-293 -294 -593 0
295 296 -594 0
-295 296 594 0
295 -296 594 0
-295 -296 -594 0
297 298 -595 0
-297 298 595 0
297 -298 595 0
-297 -298 -595 0
299 300 -596 0
-299 300 596 0
299 -300 596 0
-299 -300 -596 0
301 302 -597 0
-301 302 597 0
301 -302 597 0
-301 -302 -597 0
303 304 -598 0
-303 304 598 0
303 -304 598 0
-303 -304 -598 0
305 306 -599 0
-305 306 599 0
305 -306 599 0
-305 -306 -599 0
307 308 -600 0
-307 308 600 0
307 -308 600 0
-307 -308 -600 0
309 310 -601 0
-309 310 601 0
309 -310 601 0
-309 -310 -601 0
311 312 -602 0
-311 312 602 0
311 -312 602 0
-311 -312 -602 0
313 314 -603 0
-313 314 603 0
313 -314 603 0
-313 -314 -603 0
315 316 -604 0
-315 316 604 0
315 -316 604 0
-315 -316 -604 0
317 318 -605 0
-317 318 605 0
317 -318 605 0
-317 -318 -605 0
319 320 -606 0
-319 320 606 0
319 -320 606 0
-319 -320 -606 0
321 322 -607 0
-321 322 607 0
321 -322 607 0
-321 -322 -607 0
323 324 -608 0
-323 324 608 0
323 -324 608 0
-323 -324 -608 0
325 326 -609 0
-325 326 609 0
325 -326 609 0
-325 -326 -609 0
327 328 -610 0
-327 328 610 0
327 -328 610 0
-327 -328 -610 0
329 330 -611 0
-329 330 611 0
329 -330 611 0
-329 -330 -611 0
331 332 -612 0
-331 332 612 0
331 -332 612 0
-331 -332 -612 0
333 334 -613 0
-333 334 613 0
333 -334 613 0
-333 -334 -613 0
335 336 -614 0
-335 336 614 0
335 -336 614 0
-335 -336 -614 0
337 338 -615 0
-337 338 615 0
337 -338 615 0
-337 -338 -615 0
339 340 -616 0
-339 340 616 0
339 -340 616 0
-339 -340 -616 0
341 342 -617 0
-341 342 617 0
341 -342 617 0
-341 -342 -617 0
343 344 -618 0
-343 344 618 0
343 -344 618 0
-343 -344 -618 0
345 346 -619 0
-345 346 619 0
345 -346 619 0
-345 -346 -619 0
347 348 -620 0
-347 348 620 0
347 -348 620 0
-347 -348 -620 0
349 350 -621 0
-349 350 621 0
349 -350 621 0
-349 -350 -621 0
351 352 -622 0
-351 352 622 0
351 -352 622 0
-351 -352 -622 0
353 354 -623 0
-353 354 623 0
353 -354 623 0
-353 -354 -623 0
355 356 -624 0
-355 356 624 0
355 -356 624 0
-355 -356 -624 0
357 358 -625 0
-357 358 625 0
357 -358 625 0
-357 -358 -625 0
359 360 -626 0
-359 360 626 0
359 -360 626 0
-359 -360 -626 0
361 362 -627 0
-361 362 627 0
361 -362 627 0
-361 -362 -627 0
363 364 -628 0
-363 364 628 0
363 -364 628 0
-363 -364 -628 0
365 366 -629 0
-365 366 629 0
365 -366 629 0
-365 -366 -629 0
367 368 -630 0
-367 368 630 0
367 -368 630 0
-367 -368 -630 0
369 370 -631 0
-369 370 631 0
369 -370 631 0
-369 -370 -631 0
371 372 -632 0
-371 372 632 0
371 -372 632 0
-371 -372 -632 0
373 374 -633 0
-373 374 633 0
373 -374 633 0
-373 -374 -633 0
375 376 -634 0
-375 376 634 0
375 -376 634 0
-375 -376 -634 0
377 378 -635 0
-377 378 635 0
377 -378 635 0
-377 -378 -635 0
379 380 -636 0
-379 380 636 0
379 -380 636 0
-379 -380 -636 0
381 382 -637 0
-381 382 637 0
381 -382 637 0
-381 -382 -637 0
383 384 -638 0
-383 384 638 0
383 -384 638 0
-383 -384 -638 0
385 386 -639 0
-385 386 639 0
385 -386 639 0
-385 -386 -639 0
387 388 -640 0
-387 388 640 0
387 -388 640 0
-387 -388 -640 0
389 390 -641 0
-389 390 641 0
389 -390 641 0
-389 -390 -641 0
391 392 -642 0
-391 392 642 0
391 -392 642 0
-391 -392 -642 0
393 394 -643 0
-393 394 643 0
393 -394 643 0
-393 -394 -643 0
395 396 -644 0
-395 396 644 0
395 -396 644 0
-395 -396 -644 0
397 398 -645 0
-397 398 645 0
397 -398 645 0
-397 -398 -645 0
399 400 -646 0
-399 400 646 0
399 -400 646 0
-399 -400 -646 0
401 402 -647 0
-401 402 647 0
401 -402 647 0
-401 -402 -647 0
403 404 -648 0
-403 404 648 0
403 -404 648 0
-403 -404 -648 0
405 406 -649 0
-405 406 649 0
405 -406 649 0
-405 -406 -649 0
407 408 -650 0
-407 408 650 0
407 -408 650 0
-407 -408 -650 0
409 410 -651 0
-409 410 651 0
409 -410 651 0
-409 -410 -651 0
411 412 -652 0
-411 412 652 0
411 -412 652 0
-411 -412 -652 0
413 414 -653 0
-413 414 653 0
413 -414 653 0
-413 -414 -653 0
415 416 -654 0
-415 416 654 0
415 -416 654 0
-415 -416 -654 0
417 418 -655 0
-417 418 655 0
417 -418 655 0
-417 -418 -655 0
419 420 -656 0
-419 420 656 0
419 -420 656 0
-419 -420 -656 0
421 422 -657 0
-421 422 657 0
421 -422 657 0
-421 -422 -657 0
423 424 -658 0
-423 424 658 0
423 -424 658 0
-423 -424 -658 0
425 426 -659 0
-425 426 659 0
425 -426 659 0
-425 -426 -659 0
427 428 -660 0
-427 428 660 0
427 -428 660 0
-427 -428 -660 0
429 430 -661 0
-429 430 661 0
429 -430 661 0
-429 -430 -661 0
431 432 -662 0
-431 432 662 0
431 -432 662 0
-431 -432 -662 0
433 434 -663 0
-433 434 663 0
433 -434 663 0
-433 -434 -663 0
435 436 -664 0
-435 436 664 0
435 -436 664 0
-435 -436 -664 0
437 438 -665 0
-437 438 665 0
437 -438 665 0
-437 -438 -665 0
439 440 -666 0
-439 440 666 0
439 -440 666 0
-439 -440 -666 0
441 442 -667 0
-441 442 667 0
441 -442 667 0
-441 -442 -667 0
447 448 -668 0
-447 448 668 0
447 -448 668 0
-447 -448 -668 0
449 450 -669 0
-449 450 669 0
449 -450 669 0
-449 -450 -669 0
451 452 -670 0
-451 452 670 0
451 -452 670 0
-451 -452 -670 0
453 454 -671 0
-453 454 671 0
453 -454 671 0
-453 -454 -671 0
455 456 -672 0
-455 456 672 0
455 -456 672 0
-455 -456 -672 0
457 458 -673 0
-457 458 673 0
457 -458 673 0
-457 -458 -673 0
459 460 -674 0
-459 460 674 0
459 -460 674 0
-459 -460 -674 0
461 462 -675 0
-461 462 675 0
461 -462 675 0
-461 -462 -675 0
463 464 -676 0
-463 464 676 0
463 -464 676 0
-463 -464 -676 0
465 466 -677 0
-465 466 677 0
465 -466 677 0
-465 -466 -677 0
467 468 -678 0
-467 468 678 0
467 -468 678 0
-467 -468 -678 0
469 470 -679 0
-469 470 679 0
469 -470 679 0
-469 -470 -679 0
471 472 -680 0
-471 472 680 0
471 -472 680 0
-471 -472 -680 0
473 474 -681 0
-473 474 681 0
473 -474 681 0
-473 -474 -681 0
475 476 -682 0
-475 476 682 0
475 -476 682 0
-475 -476 -682 0
477 478 -683 0
-477 478 683 0
477 -478 683 0
-477 -478 -683 0
479 480 -684 0
-479 480 684 0
479 -480 684 0
-479 -480 -684 0
481 482 -685 0
-481 482 685 0
481 -482 685 0
-481 -482 -685 0
483 484 -686 0
-483 484 686 0
483 -484 686 0
-483 -484 -686 0
485 486 -687 0
-485 486 687 0
485 -486 687 0
-485 -486 -687 0
487 488 -688 0
-487 488 688 0
487 -488 688 0
-487 -488 -688 0
489 490 -689 0
-489 490 689 0
489 -490 689 0
-489 -490 -689 0
491 492 -690 0
-491 492 690 0
491 -492 690 0
-491 -492 -690 0
493 494 -691 0
-493 494 691 0
493 -494 691 0
-493 -494 -691 0
495 496 -692 0
-495 496 692 0
495 -496 692 0
-495 -496 -692 0
497 498 -693 0
-497 498 693 0
497 -498 693 0
-497 -498 -693 0
499 500 -694 0
-499 500 694 0
499 -500 694 0
-499 -500 -694 0
501 502 -695 0
-501 502 695 0
501 -502 695 0
-501 -502 -695 0
503 504 -696 0
-503 504 696 0
503 -504 696 0
-503 -504 -696 0
505 506 -697 0
-505 506 697 0
505 -506 697 0
-505 -506 -697 0
507 508 -698 0
-507 508 698 0
507 -508 698 0
-507 -508 -698 0
509 510 -699 0
-509 510 699 0
509 -510 699 0
-509 -510 -699 0
511 512 -700 0
-511 512 700 0
511 -512 700 0
-511 -512 -700 0
513 514 -701 0
-513 514 701 0
513 -514 701 0
-513 -514 -701 0
515 516 -702 0
-515 516 702 0
515 -516 702 0
-515 -516 -702 0
517 518 -703 0
-517 518 703 0
517 -518 703 0
-517 -518 -703 0
519 520 -704 0
-519 520 704 0
519 -520 704 0
-519 -520 -704 0
521 522 -705 0
-521 522 705 0
521 -522 705 0
-521 -522 -705 0
523 524 -706 0
-523 524 706 0
523 -524 706 0
-523 -524 -706 0
525 526 -707 0
-525 526 707 0
525 -526 707 0
-525 -526 -707 0
527 528 -708 0
-527 528 708 0
527 -528 708 0
-527 -528 -708 0
529 530 -709 0
-529 530 709 0
529 -530 709 0
-529 -530 -709 0
531 532 -710 0
-531 532 710 0
531 -532 710 0
-531 -532 -710 0
533 534 -711 0
-533 534 711 0
533 -534 711 0
-533 -534 -711 0
535 536 -712 0
-535 536 712 0
535 -536 712 0
-535 -536 -712 0
537 538 -713 0
-537 538 713 0
537 -538 713 0
-537 -538 -713 0
539 540 -714 0
-539 540 714 0
539 -540 714 0
-539 -540 -714 0
541 542 -715 0
-541 542 715 0
541 -542 715 0
-541 -542 -715 0
543 544 -716 0
-543 544 716 0
543 -544 716 0
-543 -544 -716 0
545 546 -717 0
-545 546 717 0
545 -546 717 0
-545 -546 -717 0
547 548 -718 0
-547 548 718 0
547 -548 718 0
-547 -548 -718 0
549 550 -719 0
-549 550 719 0
549 -550 719 0
-549 -550 -719 0
551 552 -720 0
-551 552 720 0
551 -552 720 0
-551 -552 -720 0
553 554 -721 0
-553 554 721 0
553 -554 721 0
-553 -554 -721 0
555 556 -722 0
-555 556 722 0
555 -556 722 0
-555 -556 -722 0
557 558 -723 0
-557 558 723 0
557 -558 723 0
-557 -558 -723 0
559 560 -724 0
-559 560 724 0
559 -560 724 0
-559 -560 -724 0
561 562 -725 0
-561 562 725 0
561 -562 725 0
-561 -562 -725 0
563 564 -726 0
-563 564 726 0
563 -564 726 0
-563 -564 -726 0
565 566 -727 0
-565 566 727 0
565 -566 727 0
-565 -566 -727 0
567 568 -728 0
-567 568 728 0
567 -568 728 0
-567 -568 -728 0
569 570 -729 0
-569 570 729 0
569 -570 729 0
-569 -570 -729 0
571 572 -730 0
-571 572 730 0
571 -572 730 0
-571 -572 -730 0
573 574 -731 0
-573 574 731 0
573 -574 731 0
-573 -574 -731 0
575 576 -732 0
-575 576 732 0
575 -576 732 0
-575 -576 -732 0
577 578 -733 0
-577 578 733 0
577 -578 733 0
-577 -578 -733 0
579 580 -734 0
-579 580 734 0
579 -580 734 0
-579 -580 -734 0
581 582 -735 0
-581 582 735 0
581 -582 735 0
-581 -582 -735 0
583 584 -736 0
-583 584 736 0
583 -584 736 0
-583 -584 -736 0
585 586 -737 0
-585 586 737 0
585 -586 737 0
-585 -586 -737 0
587 588 -738 0
-587 588 738 0
587 -588 738 0
-587 -588 -738 0
589 590 -739 0
-589 590 739 0
589 -590 739 0
-589 -590 -739 0
591 592 -740 0
-591 592 740 0
591 -592 740 0
-591 -592 -740 0
593 594 -741 0
-593 594 741 0
593 -594 741 0
-593 -594 -741 0
595 596 -742 0
-595 596 742 0
595 -596 742 0
-595 -596 -742 0
597 598 -743 0
-597 598 743 0
597 -598 743 0
-597 -598 -743 0
599 600 -744 0
-599 600 744 0
599 -600 744 0
-599 -600 -744 0
601 602 -745 0
-601 602 745 0
601 -602 745 0
-601 -602 -745 0
603 604 -746 0
-603 604 746 0
603 -604 746 0
-603 -604 -746 0
605 606 -747 0
-605 606 747 0
605 -606 747 0
-605 -606 -747 0
607 608 -748 0
-607 608 748 0
607 -608 748 0
-607 -608 -748 0
609 610 -749 0
-609 610 749 0
609 -610 749 0
-609 -610 -749 0
611 612 -750 0
-611 612 750 0
611 -612 750 0
-611 -612 -750 0
613 614 -751 0
-613 614 751 0
613 -614 751 0
-613 -614 -751 0
615 616 -752 0
-615 616 752 0
615 -616 752 0
-615 -616 -752 0
617 618 -753 0
-617 618 753 0
617 -618 753 0
-617 -618 -753 0
619 620 -754 0
-619 620 754 0
619 -620 754 0
-619 -620 -754 0
621 622 -755 0
-621 622 755 0
621 -622 755 0
-621 -622 -755 0
623 624 -756 0
-623 624 756 0
623 -624 756 0
-623 -624 -756 0
625 626 -757 0
-625 626 757 0
625 -626 757 0
-625 -626 -757 0
627 628 -758 0
-627 628 758 0
627 -628 758 0
-627 -628 -758 0
629 630 -759 0
-629 630 759 0
629 -630 759 0
-629 -630 -759 0
631 632 -760 0
-631 632 760 0
631 -632 760 0
-631 -632 -760 0
633 634 -761 0
-633 634 761 0
633 -634 761 0
-633 -634 -761 0
635 636 -762 0
-635 636 762 0
635 -636 762 0
-635 -636 -762 0
637 638 -763 0
-637 638 763 0
637 -638 763 0
-637 -638 -763 0
639 640 -764 0
-639 640 764 0
639 -640 764 0
-639 -640 -764 0
641 642 -765 0
-641 642 765 0
641 -642 765 0
-641 -642 -765 0
643 644 -766 0
-643 644 766 0
643 -644 766 0
-643 -644 -766 0
645 646 -767 0
-645 646 767 0
645 -646 767 0
-645 -646 -767 0
647 648 -768 0
-647 648 768 0
647 -648 768 0
-647 -648 -768 0
649 650 -769 0
-649 650 769 0
649 -650 769 0
-649 -650 -769 0
651 652 -770 0
-651 652 770 0
651 -652 770 0
-651 -652 -770 0
653 654 -771 0
-653 654 771 0
653 -654 771 0
-653 -654 -771 0
655 656 -772 0
-655 656 772 0
655 -656 772 0
-655 -656 -772 0
657 658 -773 0
-657 658 773 0
657 -658 773 0
-657 -658 -773 0
659 660 -774 0
-659 660 774 0
659 -660 774 0
-659 -660 -774 0
661 662 -775 0
-661 662 775 0
661 -662 775 0
-661 -662 -775 0
663 664 -776 0
-663 664 776 0
663 -664 776 0
-663 -664 -776 0
665 666 -777 0
-665 666 777 0
665 -666 777 0
-665 -666 -777 0
667 443 -778 0
-667 443 778 0
667 -443 778 0
-667 -443 -778 0
668 669 -779 0
-668 669 779 0
668 -669 779 0
-668 -669 -779 0
670 671 -780 0
-670 671 780 0
670 -671 780 0
-670 -671 -780 0
672 673 -781 0
-672 673 781 0
672 -673 781 0
-672 -673 -781 0
674 675 -782 0
-674 675 782 0
674 -675 782 0
-674 -675 -782 0
676 677 -783 0
-676 677 783 0
676 -677 783 0
-676 -677 -783 0
678 679 -784 0
-678 679 784 0
678 -679 784 0
-678 -679 -784 0
680 681 -785 0
-680 681 785 0
680 -681 785 0
-680 -681 -785 0
682 683 -786 0
-682 683 786 0
682 -683 786 0
-682 -683 -786 0
684 685 -787 0
-684 685 787 0
684 -685 787 0
-684 -685 -787 0
686 687 -788 0
-686 687 788 0
686 -687 788 0
-686 -687 -788 0
688 689 -789 0
-688 689 789 0
688 -689 789 0
-688 -689 -789 0
690 691 -790 0
-690 691 790 0
690 -691 790 0
-690 -691 -790 0
692 693 -791 0
-692 693 791 0
692 -693 791 0
-692 -693 -791 0
694 695 -792 0
-694 695 792 0
694 -695 792 0
-694 -695 -792 0
696 697 -793 0
-696 697 793 0
696 -697 793 0
-696 -697 -793 0
698 699 -794 0
-698 699 794 0
698 -699 794 0
-698 -699 -794 0
700 701 -795 0
-700 701 795 0
700 -701 795 0
-700 -701 -795 0
702 703 -796 0
-702 703 796 0
702 -703 796 0
-702 -703 -796 0
704 705 -797 0
-704 705 797 0
704 -705 797 0
-704 -705 -797 0
706 707 -798 0
-706 707 798 0
706 -707 798 0
-706 -707 -798 0
708 709 -799 0
-708 709 799 0
708 -709 799 0
-708 -709 -799 0
710 711 -800 0
-710 711 800 0
710 -711 800 0
-710 -711 -800 0
712 713 -801 0
-712 713 801 0
712 -713 801 0
-712 -713 -801 0
714 715 -802 0
-714 715 802 0
714 -715 802 0
-714 -715 -802 0
716 717 -803 0
-716 717 803 0
716 -717 803 0
-716 -717 -803 0
718 719 -804 0
-718 719 804 0
718 -719 804 0
-718 -719 -804 0
720 721 -805 0
-720 721 805 0
720 -721 805 0
-720 -721 -805 0
722 723 -806 0
-722 723 806 0
722 -723 806 0
-722 -723 -806 0
724 725 -807 0
-724 725 807 0
724 -725 807 0
-724 -725 -807 0
726 727 -808 0
-726 727 808 0
726 -727 808 0
-726 -727 -808 0
728 729 -809 0
-728 729 809 0
728 -729 809 0
-728 -729 -809 0
730 731 -810 0
-730 731 810 0
730 -731 810 0
-730 -731 -810 0
732 733 -811 0
-732 733 811 0
732 -733 811 0
-732 -733 -811 0
734 735 -812 0
-734 735 812 0
734 -735 812 0
-734 -735 -812 0
736 737 -813 0
-736 737 813 0
736 -737 813 0
-736 -737 -813 0
738 739 -814 0
-738 739 814 0
738 -739 814 0
-738 -739 -814 0
740 741 -815 0
-740 741 815 0
740 -741 815 0
-740 -741 -815 0
742 743 -816 0
-742 743 816 0
742 -743 816 0
-742 -743 -816 0
744 745 -817 0
-744 745 817 0
744 -745 817 0
-744 -745 -817 0
746 747 -818 0
-746 747 818 0
746 -747 818 0
-746 -747 -818 0
748 749 -819 0
-748 749 819 0
748 -749 819 0
-748 -749 -819 0
750 751 -820 0
-750 751 820 0
750 -751 820 0
-750 -751 -820 0
752 753 -821 0
-752 753 821 0
752 -753 821 0
-752 -753 -821 0
754 755 -822 0
-754 755 822 0
754 -755 822 0
-754 -755 -822 0
756 757 -823 0
-756 757 823 0
756 -757 823 0
-756 -757 -823 0
758 759 -824 0
-758 759 824 0
758 -759 824 0
-758 -759 -824 0
760 761 -825 0
-760 761 825 0
760 -761 825 0
-760 -761 -825 0
762 763 -826 0
-762 763 826 0
762 -763 826 0
-762 -763 -826 0
764 765 -827 0
-764 765 827 0
764 -765 827 0
-764 -765 -827 0
766 767 -828 0
-766 767 828 0
766 -767 828 0
-766 -767 -828 0
768 769 -829 0
-768 769 829 0
768 -769 829 0
-768 -769 -829 0
770 771 -830 0
-770 771 830 0
770 -771 830 0
-770 -771 -830 0
772 773 -831 0
-772 773 831 0
772 -773 831 0
-772 -773 -831 0
774 775 -832 0
-774 775 832 0
774 -775 832 0
-774 -775 -832 0
776 777 -833 0
-776 777 833 0
776 -777 833 0
-776 -777 -833 0
779 780 -834 0
-779 780 834 0
779 -780 834 0
-779 -780 -834 0
781 782 -835 0
-781 782 835 0
781 -782 835 0
-781 -782 -835 0
783 784 -836 0
-783 784 836 0
783 -784 836 0
-783 -784 -836 0
785 786 -837 0
-785 786 837 0
785 -786 837 0
-785 -786 -837 0
787 788 -838 0
-787 788 838 0
787 -788 838 0
-787 -788 -838 0
789 790 -839 0
-789 790 839 0
789 -790 839 0
-789 -790 -839 0
791 792 -840 0
-791 792 840 0
791 -792 840 0
-791 -792 -840 0
793 794 -841 0
-793 794 841 0
793 -794 841 0
-793 -794 -841 0
795 796 -842 0
-795 796 842 0
795 -796 842 0
-795 -796 -842 0
797 798 -843 0
-797 798 843 0
797 -798 843 0
-797 -798 -843 0
799 800 -844 0
-799 800 844 0
799 -800 844 0
-799 -800 -844 0
801 802 -845 0
-801 802 845 0
801 -802 845 0
-801 -802 -845 0
803 804 -846 0
-803 804 846 0
803 -804 846 0
-803 -804 -846 0
805 806 -847 0
-805 806 847 0
805 -806 847 0
-805 -806 -847 0
807 808 -848 0
-807 808 848 0
807 -808 848 0
-807 -808 -848 0
809 810 -849 0
-809 810 849 0
809 -810 849 0
-809 -810 -849 0
811 812 -850 0
-811 812 850 0
811 -812 850 0
-811 -812 -850 0
813 814 -851 0
-813 814 851 0
813 -814 851 0
-813 -814 -851 0
815 816 -852 0
-815 816 852 0
815 -816 852 0
-815 -816 -852 0
817 818 -853 0
-817 818 853 0
817 -818 853 0
-817 -818 -853 0
819 820 -854 0
-819 820 854 0
819 -820 854 0
-819 -820 -854 0
821 822 -855 0
-821 822 855 0
821 -822 855 0
-821 -822 -855 0
823 824 -856 0
-823 824 856 0
823 -824 856 0
-823 -824 -856 0
825 826 -857 0
-825 826 857 0
825 -826 857 0
-825 -826 -857 0
827 828 -858 0
-827 828 858 0
827 -828 858 0
-827 -828 -858 0
829 830 -859 0
-829 830 859 0
829 -830 859 0
-829 -830 -859 0
831 832 -860 0
-831 832 860 0
831 -832 860 0
-831 -832 -860 0
833 778 -861 0
-833 778 861 0
833 -778 861 0
-833 -778 -861 0
834 835 -862 0
-834 835 862 0
834 -835 862 0
-834 -835 -862 0
836 837 -863 0
-836 837 863 0
836 -837 863 0
-836 -837 -863 0
838 839 -864 0
-838 839 864 0
838 -839 864 0
-838 -839 -864 0
840 841 -865 0
-840 841 865 0
840 -841 865 0
-840 -841 -865 0
842 843 -866 0
-842 843 866 0
842 -843 866 0
-842 -843 -866 0
844 845 -867 0
-844 845 867 0
844 -845 867 0
-844 -845 -867 0
846 847 -868 0
-846 847 868 0
846 -847 868 0
-846 -847 -868 0
848 849 -869 0
-848 849 869 0
848 -849 869 0
-848 -849 -869 0
850 851 -870 0
-850 851 870 0
850 -851 870 0
-850 -851 -870 0
852 853 -871 0
-852 853 871 0
852 -853 871 0
-852 -853 -871 0
854 855 -872 0
-854 855 872 0
854 -855 872 0
-854 -855 -872 0
856 857 -873 0
-856 857 873 0
856 -857 873 0
-856 -857 -873 0
858 859 -874 0
-858 859 874 0
858 -859 874 0
-858 -859 -874 0
860 861 -875 0
-860 861 875 0
860 -861 875 0
-860 -861 -875 0
862 863 -876 0
-862 863 876 0
862 -863 876 0
-862 -863 -876 0
864 865 -877 0
-864 865 877 0
864 -865 877 0
-864 -865 -877 0
866 867 -878 0
-866 867 878 0
866 -867 878 0
-866 -867 -878 0
868 869 -879 0
-868 869 879 0
868 -869 879 0
-868 -869 -879 0
870 871 -880 0
-870 871 880 0
870 -871 880 0
-870 -871 -880 0
872 873 -881 0
-872 873 881 0
872 -873 881 0
-872 -873 -881 0
874 875 -882 0
-874 875 882 0
874 -875 882 0
-874 -875 -882 0
876 877 -883 0
-876 877 883 0
876 -877 883 0
-876 -877 -883 0
878 879 -884 0
-878 879 884 0
878 -879 884 0
-878 -879 -884 0
880 881 -885 0
-880 881 885 0
880 -881 885 0
-880 -881 -885 0
883 884 -886 0
-883 884 886 0
883 -884 886 0
-883 -884 -886 0
885 882 -887 0
-885 882 887 0
885 -882 887 0
-885 -882 -887 0
886 887 -444 0
-886 887 444 0
886 -887 444 0
-886 -887 -444 0
